\* TSP_size10 *\
Minimize
OBJ: 1435.13190819 x_10_1 + 1435.13190819 x_10_10 + 887.622811829 x_10_12
 + 662.477252242 x_10_13 + 159.216207048 x_10_14 + 821.840964686 x_10_15
 + 969.106630391 x_10_16 + 669.113071398 x_10_17 + 486.898363584 x_10_18
 + 670.159243759 x_10_19 + 652.696054785 x_10_2 + 652.696054785 x_10_20
 + 887.622811829 x_10_21 + 244.906738184 x_10_23 + 867.700379509 x_10_24
 + 994.570466432 x_10_25 + 187.542589404 x_10_26 + 1349.55190632 x_10_27
 + 1355.19395644 x_10_28 + 235.740944674 x_10_29 + 883.093828296 x_10_3
 + 883.093828296 x_10_30 + 662.477252242 x_10_31 + 244.906738184 x_10_32
 + 627.440315876 x_10_34 + 945.206518108 x_10_35 + 393.138583719 x_10_36
 + 1190.67636751 x_10_37 + 1142.29222663 x_10_38 + 9.23559673622 x_10_39
 + 1460.01133748 x_10_4 + 1460.01133748 x_10_40 + 159.216207048 x_10_41
 + 867.700379509 x_10_42 + 627.440315876 x_10_43 + 961.686879298 x_10_45
 + 977.041375856 x_10_46 + 822.434464384 x_10_47 + 587.714063144 x_10_48
 + 636.122473454 x_10_49 + 1143.62384264 x_10_5 + 1143.62384264 x_10_50
 + 821.840964686 x_10_51 + 994.570466432 x_10_52 + 945.206518108 x_10_53
 + 961.686879298 x_10_54 + 911.80564593 x_10_56 + 626.504221075 x_10_57
 + 945.104518254 x_10_58 + 944.859859174 x_10_59 + 492.041289206 x_10_6
 + 492.041289206 x_10_60 + 969.106630391 x_10_61 + 187.542589404 x_10_62
 + 393.138583719 x_10_63 + 977.041375856 x_10_64 + 911.80564593 x_10_65
 + 1345.30297866 x_10_67 + 1410.06442406 x_10_68 + 384.201252818 x_10_69
 + 1697.51313667 x_10_7 + 1697.51313667 x_10_70 + 669.113071398 x_10_71
 + 1349.55190632 x_10_72 + 1190.67636751 x_10_73 + 822.434464384 x_10_74
 + 626.504221075 x_10_75 + 1345.30297866 x_10_76 + 432.546946207 x_10_78
 + 1195.2141856 x_10_79 + 1841.73160573 x_10_8 + 1841.73160573 x_10_80
 + 486.898363584 x_10_81 + 1355.19395644 x_10_82 + 1142.29222663 x_10_83
 + 587.714063144 x_10_84 + 945.104518254 x_10_85 + 1410.06442406 x_10_86
 + 432.546946207 x_10_87 + 1149.44291349 x_10_89 + 874.000628863 x_10_9
 + 874.000628863 x_10_90 + 670.159243759 x_10_91 + 235.740944674 x_10_92
 + 9.23559673622 x_10_93 + 636.122473454 x_10_94 + 944.859859174 x_10_95
 + 384.201252818 x_10_96 + 1195.2141856 x_10_97 + 1149.44291349 x_10_98
Subject To
_C1: x_10_0 = 0
_C10: x_10_33 = 0
_C100: t_10_Gokak,_Karnataka,_India - t_10_Mumbai,_Maharashtra,_India
 - 20 x_10_96 >= -19
_C101: t_10_Lucknow,_Uttar_Pradesh,_India - t_10_Mumbai,_Maharashtra,_India
 - 20 x_10_97 >= -19
_C102: t_10_Delhi,_India - t_10_Mumbai,_Maharashtra,_India - 20 x_10_98 >= -19
_C11: x_10_30 + x_10_31 + x_10_32 + x_10_33 + x_10_34 + x_10_35 + x_10_36
 + x_10_37 + x_10_38 + x_10_39 = 1
_C12: x_10_13 + x_10_23 + x_10_3 + x_10_33 + x_10_43 + x_10_53 + x_10_63
 + x_10_73 + x_10_83 + x_10_93 = 1
_C13: x_10_44 = 0
_C14: x_10_40 + x_10_41 + x_10_42 + x_10_43 + x_10_44 + x_10_45 + x_10_46
 + x_10_47 + x_10_48 + x_10_49 = 1
_C15: x_10_14 + x_10_24 + x_10_34 + x_10_4 + x_10_44 + x_10_54 + x_10_64
 + x_10_74 + x_10_84 + x_10_94 = 1
_C16: x_10_55 = 0
_C17: x_10_50 + x_10_51 + x_10_52 + x_10_53 + x_10_54 + x_10_55 + x_10_56
 + x_10_57 + x_10_58 + x_10_59 = 1
_C18: x_10_15 + x_10_25 + x_10_35 + x_10_45 + x_10_5 + x_10_55 + x_10_65
 + x_10_75 + x_10_85 + x_10_95 = 1
_C19: x_10_66 = 0
_C2: x_10_0 + x_10_1 + x_10_2 + x_10_3 + x_10_4 + x_10_5 + x_10_6 + x_10_7
 + x_10_8 + x_10_9 = 1
_C20: x_10_60 + x_10_61 + x_10_62 + x_10_63 + x_10_64 + x_10_65 + x_10_66
 + x_10_67 + x_10_68 + x_10_69 = 1
_C21: x_10_16 + x_10_26 + x_10_36 + x_10_46 + x_10_56 + x_10_6 + x_10_66
 + x_10_76 + x_10_86 + x_10_96 = 1
_C22: x_10_77 = 0
_C23: x_10_70 + x_10_71 + x_10_72 + x_10_73 + x_10_74 + x_10_75 + x_10_76
 + x_10_77 + x_10_78 + x_10_79 = 1
_C24: x_10_17 + x_10_27 + x_10_37 + x_10_47 + x_10_57 + x_10_67 + x_10_7
 + x_10_77 + x_10_87 + x_10_97 = 1
_C25: x_10_88 = 0
_C26: x_10_80 + x_10_81 + x_10_82 + x_10_83 + x_10_84 + x_10_85 + x_10_86
 + x_10_87 + x_10_88 + x_10_89 = 1
_C27: x_10_18 + x_10_28 + x_10_38 + x_10_48 + x_10_58 + x_10_68 + x_10_78
 + x_10_8 + x_10_88 + x_10_98 = 1
_C28: x_10_99 = 0
_C29: x_10_90 + x_10_91 + x_10_92 + x_10_93 + x_10_94 + x_10_95 + x_10_96
 + x_10_97 + x_10_98 + x_10_99 = 1
_C3: x_10_0 + x_10_10 + x_10_20 + x_10_30 + x_10_40 + x_10_50 + x_10_60
 + x_10_70 + x_10_80 + x_10_90 = 1
_C30: x_10_19 + x_10_29 + x_10_39 + x_10_49 + x_10_59 + x_10_69 + x_10_79
 + x_10_89 + x_10_9 + x_10_99 = 1
_C31: - t_10_Chittorgarh,_Rajasthan,_India
 + t_10_Ratnagiri,_Maharashtra,_India - 20 x_10_12 >= -19
_C32: - t_10_Chittorgarh,_Rajasthan,_India
 + t_10_Goregaon,_Mumbai,_Maharashtra,_India - 20 x_10_13 >= -19
_C33: - t_10_Chittorgarh,_Rajasthan,_India + t_10_Pindwara,_Rajasthan,_India
 - 20 x_10_14 >= -19
_C34: - t_10_Chittorgarh,_Rajasthan,_India + t_10_Raipur,_Chhattisgarh,_India
 - 20 x_10_15 >= -19
_C35: - t_10_Chittorgarh,_Rajasthan,_India + t_10_Gokak,_Karnataka,_India
 - 20 x_10_16 >= -19
_C36: - t_10_Chittorgarh,_Rajasthan,_India
 + t_10_Lucknow,_Uttar_Pradesh,_India - 20 x_10_17 >= -19
_C37: - t_10_Chittorgarh,_Rajasthan,_India + t_10_Delhi,_India - 20 x_10_18
 >= -19
_C38: - t_10_Chittorgarh,_Rajasthan,_India + t_10_Mumbai,_Maharashtra,_India
 - 20 x_10_19 >= -19
_C39: t_10_Chittorgarh,_Rajasthan,_India - t_10_Ratnagiri,_Maharashtra,_India
 - 20 x_10_21 >= -19
_C4: x_10_11 = 0
_C40: t_10_Goregaon,_Mumbai,_Maharashtra,_India
 - t_10_Ratnagiri,_Maharashtra,_India - 20 x_10_23 >= -19
_C41: t_10_Pindwara,_Rajasthan,_India - t_10_Ratnagiri,_Maharashtra,_India
 - 20 x_10_24 >= -19
_C42: t_10_Raipur,_Chhattisgarh,_India - t_10_Ratnagiri,_Maharashtra,_India
 - 20 x_10_25 >= -19
_C43: t_10_Gokak,_Karnataka,_India - t_10_Ratnagiri,_Maharashtra,_India
 - 20 x_10_26 >= -19
_C44: t_10_Lucknow,_Uttar_Pradesh,_India - t_10_Ratnagiri,_Maharashtra,_India
 - 20 x_10_27 >= -19
_C45: t_10_Delhi,_India - t_10_Ratnagiri,_Maharashtra,_India - 20 x_10_28
 >= -19
_C46: t_10_Mumbai,_Maharashtra,_India - t_10_Ratnagiri,_Maharashtra,_India
 - 20 x_10_29 >= -19
_C47: t_10_Chittorgarh,_Rajasthan,_India
 - t_10_Goregaon,_Mumbai,_Maharashtra,_India - 20 x_10_31 >= -19
_C48: - t_10_Goregaon,_Mumbai,_Maharashtra,_India
 + t_10_Ratnagiri,_Maharashtra,_India - 20 x_10_32 >= -19
_C49: - t_10_Goregaon,_Mumbai,_Maharashtra,_India
 + t_10_Pindwara,_Rajasthan,_India - 20 x_10_34 >= -19
_C5: x_10_10 + x_10_11 + x_10_12 + x_10_13 + x_10_14 + x_10_15 + x_10_16
 + x_10_17 + x_10_18 + x_10_19 = 1
_C50: - t_10_Goregaon,_Mumbai,_Maharashtra,_India
 + t_10_Raipur,_Chhattisgarh,_India - 20 x_10_35 >= -19
_C51: t_10_Gokak,_Karnataka,_India - t_10_Goregaon,_Mumbai,_Maharashtra,_India
 - 20 x_10_36 >= -19
_C52: - t_10_Goregaon,_Mumbai,_Maharashtra,_India
 + t_10_Lucknow,_Uttar_Pradesh,_India - 20 x_10_37 >= -19
_C53: t_10_Delhi,_India - t_10_Goregaon,_Mumbai,_Maharashtra,_India
 - 20 x_10_38 >= -19
_C54: - t_10_Goregaon,_Mumbai,_Maharashtra,_India
 + t_10_Mumbai,_Maharashtra,_India - 20 x_10_39 >= -19
_C55: t_10_Chittorgarh,_Rajasthan,_India - t_10_Pindwara,_Rajasthan,_India
 - 20 x_10_41 >= -19
_C56: - t_10_Pindwara,_Rajasthan,_India + t_10_Ratnagiri,_Maharashtra,_India
 - 20 x_10_42 >= -19
_C57: t_10_Goregaon,_Mumbai,_Maharashtra,_India
 - t_10_Pindwara,_Rajasthan,_India - 20 x_10_43 >= -19
_C58: - t_10_Pindwara,_Rajasthan,_India + t_10_Raipur,_Chhattisgarh,_India
 - 20 x_10_45 >= -19
_C59: t_10_Gokak,_Karnataka,_India - t_10_Pindwara,_Rajasthan,_India
 - 20 x_10_46 >= -19
_C6: x_10_1 + x_10_11 + x_10_21 + x_10_31 + x_10_41 + x_10_51 + x_10_61
 + x_10_71 + x_10_81 + x_10_91 = 1
_C60: t_10_Lucknow,_Uttar_Pradesh,_India - t_10_Pindwara,_Rajasthan,_India
 - 20 x_10_47 >= -19
_C61: t_10_Delhi,_India - t_10_Pindwara,_Rajasthan,_India - 20 x_10_48 >= -19
_C62: t_10_Mumbai,_Maharashtra,_India - t_10_Pindwara,_Rajasthan,_India
 - 20 x_10_49 >= -19
_C63: t_10_Chittorgarh,_Rajasthan,_India - t_10_Raipur,_Chhattisgarh,_India
 - 20 x_10_51 >= -19
_C64: - t_10_Raipur,_Chhattisgarh,_India + t_10_Ratnagiri,_Maharashtra,_India
 - 20 x_10_52 >= -19
_C65: t_10_Goregaon,_Mumbai,_Maharashtra,_India
 - t_10_Raipur,_Chhattisgarh,_India - 20 x_10_53 >= -19
_C66: t_10_Pindwara,_Rajasthan,_India - t_10_Raipur,_Chhattisgarh,_India
 - 20 x_10_54 >= -19
_C67: t_10_Gokak,_Karnataka,_India - t_10_Raipur,_Chhattisgarh,_India
 - 20 x_10_56 >= -19
_C68: t_10_Lucknow,_Uttar_Pradesh,_India - t_10_Raipur,_Chhattisgarh,_India
 - 20 x_10_57 >= -19
_C69: t_10_Delhi,_India - t_10_Raipur,_Chhattisgarh,_India - 20 x_10_58 >= -19
_C7: x_10_22 = 0
_C70: t_10_Mumbai,_Maharashtra,_India - t_10_Raipur,_Chhattisgarh,_India
 - 20 x_10_59 >= -19
_C71: t_10_Chittorgarh,_Rajasthan,_India - t_10_Gokak,_Karnataka,_India
 - 20 x_10_61 >= -19
_C72: - t_10_Gokak,_Karnataka,_India + t_10_Ratnagiri,_Maharashtra,_India
 - 20 x_10_62 >= -19
_C73: - t_10_Gokak,_Karnataka,_India
 + t_10_Goregaon,_Mumbai,_Maharashtra,_India - 20 x_10_63 >= -19
_C74: - t_10_Gokak,_Karnataka,_India + t_10_Pindwara,_Rajasthan,_India
 - 20 x_10_64 >= -19
_C75: - t_10_Gokak,_Karnataka,_India + t_10_Raipur,_Chhattisgarh,_India
 - 20 x_10_65 >= -19
_C76: - t_10_Gokak,_Karnataka,_India + t_10_Lucknow,_Uttar_Pradesh,_India
 - 20 x_10_67 >= -19
_C77: t_10_Delhi,_India - t_10_Gokak,_Karnataka,_India - 20 x_10_68 >= -19
_C78: - t_10_Gokak,_Karnataka,_India + t_10_Mumbai,_Maharashtra,_India
 - 20 x_10_69 >= -19
_C79: t_10_Chittorgarh,_Rajasthan,_India - t_10_Lucknow,_Uttar_Pradesh,_India
 - 20 x_10_71 >= -19
_C8: x_10_20 + x_10_21 + x_10_22 + x_10_23 + x_10_24 + x_10_25 + x_10_26
 + x_10_27 + x_10_28 + x_10_29 = 1
_C80: - t_10_Lucknow,_Uttar_Pradesh,_India
 + t_10_Ratnagiri,_Maharashtra,_India - 20 x_10_72 >= -19
_C81: t_10_Goregaon,_Mumbai,_Maharashtra,_India
 - t_10_Lucknow,_Uttar_Pradesh,_India - 20 x_10_73 >= -19
_C82: - t_10_Lucknow,_Uttar_Pradesh,_India + t_10_Pindwara,_Rajasthan,_India
 - 20 x_10_74 >= -19
_C83: - t_10_Lucknow,_Uttar_Pradesh,_India + t_10_Raipur,_Chhattisgarh,_India
 - 20 x_10_75 >= -19
_C84: t_10_Gokak,_Karnataka,_India - t_10_Lucknow,_Uttar_Pradesh,_India
 - 20 x_10_76 >= -19
_C85: t_10_Delhi,_India - t_10_Lucknow,_Uttar_Pradesh,_India - 20 x_10_78
 >= -19
_C86: - t_10_Lucknow,_Uttar_Pradesh,_India + t_10_Mumbai,_Maharashtra,_India
 - 20 x_10_79 >= -19
_C87: t_10_Chittorgarh,_Rajasthan,_India - t_10_Delhi,_India - 20 x_10_81
 >= -19
_C88: - t_10_Delhi,_India + t_10_Ratnagiri,_Maharashtra,_India - 20 x_10_82
 >= -19
_C89: - t_10_Delhi,_India + t_10_Goregaon,_Mumbai,_Maharashtra,_India
 - 20 x_10_83 >= -19
_C9: x_10_12 + x_10_2 + x_10_22 + x_10_32 + x_10_42 + x_10_52 + x_10_62
 + x_10_72 + x_10_82 + x_10_92 = 1
_C90: - t_10_Delhi,_India + t_10_Pindwara,_Rajasthan,_India - 20 x_10_84
 >= -19
_C91: - t_10_Delhi,_India + t_10_Raipur,_Chhattisgarh,_India - 20 x_10_85
 >= -19
_C92: - t_10_Delhi,_India + t_10_Gokak,_Karnataka,_India - 20 x_10_86 >= -19
_C93: - t_10_Delhi,_India + t_10_Lucknow,_Uttar_Pradesh,_India - 20 x_10_87
 >= -19
_C94: - t_10_Delhi,_India + t_10_Mumbai,_Maharashtra,_India - 20 x_10_89
 >= -19
_C95: t_10_Chittorgarh,_Rajasthan,_India - t_10_Mumbai,_Maharashtra,_India
 - 20 x_10_91 >= -19
_C96: - t_10_Mumbai,_Maharashtra,_India + t_10_Ratnagiri,_Maharashtra,_India
 - 20 x_10_92 >= -19
_C97: t_10_Goregaon,_Mumbai,_Maharashtra,_India
 - t_10_Mumbai,_Maharashtra,_India - 20 x_10_93 >= -19
_C98: - t_10_Mumbai,_Maharashtra,_India + t_10_Pindwara,_Rajasthan,_India
 - 20 x_10_94 >= -19
_C99: - t_10_Mumbai,_Maharashtra,_India + t_10_Raipur,_Chhattisgarh,_India
 - 20 x_10_95 >= -19
Bounds
 1 <= t_10_Chittorgarh,_Rajasthan,_India <= 10
 1 <= t_10_Delhi,_India <= 10
 1 <= t_10_Gokak,_Karnataka,_India <= 10
 1 <= t_10_Goregaon,_Mumbai,_Maharashtra,_India <= 10
 1 <= t_10_Lucknow,_Uttar_Pradesh,_India <= 10
 1 <= t_10_Mumbai,_Maharashtra,_India <= 10
 1 <= t_10_Pindwara,_Rajasthan,_India <= 10
 1 <= t_10_Raipur,_Chhattisgarh,_India <= 10
 1 <= t_10_Ratnagiri,_Maharashtra,_India <= 10
Generals
t_10_Chittorgarh,_Rajasthan,_India
t_10_Delhi,_India
t_10_Gokak,_Karnataka,_India
t_10_Goregaon,_Mumbai,_Maharashtra,_India
t_10_Lucknow,_Uttar_Pradesh,_India
t_10_Mumbai,_Maharashtra,_India
t_10_Pindwara,_Rajasthan,_India
t_10_Raipur,_Chhattisgarh,_India
t_10_Ratnagiri,_Maharashtra,_India
Binaries
x_10_0
x_10_1
x_10_10
x_10_11
x_10_12
x_10_13
x_10_14
x_10_15
x_10_16
x_10_17
x_10_18
x_10_19
x_10_2
x_10_20
x_10_21
x_10_22
x_10_23
x_10_24
x_10_25
x_10_26
x_10_27
x_10_28
x_10_29
x_10_3
x_10_30
x_10_31
x_10_32
x_10_33
x_10_34
x_10_35
x_10_36
x_10_37
x_10_38
x_10_39
x_10_4
x_10_40
x_10_41
x_10_42
x_10_43
x_10_44
x_10_45
x_10_46
x_10_47
x_10_48
x_10_49
x_10_5
x_10_50
x_10_51
x_10_52
x_10_53
x_10_54
x_10_55
x_10_56
x_10_57
x_10_58
x_10_59
x_10_6
x_10_60
x_10_61
x_10_62
x_10_63
x_10_64
x_10_65
x_10_66
x_10_67
x_10_68
x_10_69
x_10_7
x_10_70
x_10_71
x_10_72
x_10_73
x_10_74
x_10_75
x_10_76
x_10_77
x_10_78
x_10_79
x_10_8
x_10_80
x_10_81
x_10_82
x_10_83
x_10_84
x_10_85
x_10_86
x_10_87
x_10_88
x_10_89
x_10_9
x_10_90
x_10_91
x_10_92
x_10_93
x_10_94
x_10_95
x_10_96
x_10_97
x_10_98
x_10_99
End
